Ag Au O                                 
   1.00000000000000     
    18.0000000000000000    0.0000000000000000    0.0000000000000000
     0.0000000000000000   18.0000000000000000    0.0000000000000000
     0.0000000000000000    0.0000000000000000   18.0000000000000000
   Ag   Au   O 
    32     6     1
Direct
  0.5829281354714803  0.4251332617962086  0.5010931365052507
  0.5681828868927158  0.7457611852090203  0.5038559004397531
  0.2619043463737926  0.5742025688093109  0.4977228482963010
  0.4122196607918001  0.7363540427731877  0.5015598428194740
  0.2669959811564809  0.4153566767963994  0.4961235931192891
  0.4245432468994352  0.2625525539219393  0.4972320265340767
  0.7462279541490862  0.4254582883109034  0.5035775720035852
  0.5808558030621329  0.2656157818596764  0.4996934692892508
  0.6620369656578827  0.5046464737126378  0.6209848073451869
  0.3298922477926251  0.4956227712098960  0.6181337256041549
  0.4923920750920721  0.6704838761813755  0.6222508561988522
  0.5007068711198688  0.3328793979375914  0.6181755419498608
  0.6512102401129654  0.6657804445676071  0.6141289542200761
  0.3349874468597292  0.6535249059107767  0.6136461768990276
  0.3423693009116052  0.3377144527364151  0.6108731230164556
  0.6596067043182762  0.3458111881844051  0.6105331016870670
  0.6656547260474425  0.5065794834225053  0.3850059147880702
  0.3339219268517654  0.4979988018214053  0.3778947457185463
  0.4959776552606433  0.6722493560938765  0.3821967306592473
  0.5044834712506167  0.3347760625256216  0.3797915210658912
  0.6538911564789677  0.6675382268763159  0.3943247389789838
  0.3384408765295404  0.6558732133891360  0.3857156927817978
  0.3463672445214990  0.3400874071880318  0.3823970364415961
  0.6629644030098766  0.3473401590957219  0.3925925456868669
  0.5738421175851950  0.5837891071972191  0.7260390853773556
  0.4145081354758547  0.5773251548343203  0.7263632496670610
  0.4179800342100173  0.4176525156070199  0.7243600215553807
  0.5772239712213804  0.4223485332014403  0.7235463551870609
  0.5803439703996186  0.5873670261846041  0.2787763239454424
  0.4212713298854507  0.5818004852792281  0.2738507814853429
  0.4252954953548311  0.4221965461109825  0.2726860748519153
  0.5843647246799334  0.4260373222499322  0.2784811219535234
  0.4970355317135930  0.5013507345432251  0.6151506575913859
  0.4227387000199531  0.4193321095508646  0.4987111613109206
  0.4178459903885389  0.5792604923451604  0.5001365168208746
  0.5007771212083433  0.5032103068875090  0.3860302006491108
  0.5760781220634424  0.5869658675481215  0.5027287987099871
  0.7314580377683125  0.5847988851314281  0.5045143513976653
  0.8213696466359961  0.5186345004373374  0.5014854871055258
 
  0.00000000E+00  0.00000000E+00  0.00000000E+00
  0.00000000E+00  0.00000000E+00  0.00000000E+00
  0.00000000E+00  0.00000000E+00  0.00000000E+00
  0.00000000E+00  0.00000000E+00  0.00000000E+00
  0.00000000E+00  0.00000000E+00  0.00000000E+00
  0.00000000E+00  0.00000000E+00  0.00000000E+00
  0.00000000E+00  0.00000000E+00  0.00000000E+00
  0.00000000E+00  0.00000000E+00  0.00000000E+00
  0.00000000E+00  0.00000000E+00  0.00000000E+00
  0.00000000E+00  0.00000000E+00  0.00000000E+00
  0.00000000E+00  0.00000000E+00  0.00000000E+00
  0.00000000E+00  0.00000000E+00  0.00000000E+00
  0.00000000E+00  0.00000000E+00  0.00000000E+00
  0.00000000E+00  0.00000000E+00  0.00000000E+00
  0.00000000E+00  0.00000000E+00  0.00000000E+00
  0.00000000E+00  0.00000000E+00  0.00000000E+00
  0.00000000E+00  0.00000000E+00  0.00000000E+00
  0.00000000E+00  0.00000000E+00  0.00000000E+00
  0.00000000E+00  0.00000000E+00  0.00000000E+00
  0.00000000E+00  0.00000000E+00  0.00000000E+00
  0.00000000E+00  0.00000000E+00  0.00000000E+00
  0.00000000E+00  0.00000000E+00  0.00000000E+00
  0.00000000E+00  0.00000000E+00  0.00000000E+00
  0.00000000E+00  0.00000000E+00  0.00000000E+00
  0.00000000E+00  0.00000000E+00  0.00000000E+00
  0.00000000E+00  0.00000000E+00  0.00000000E+00
  0.00000000E+00  0.00000000E+00  0.00000000E+00
  0.00000000E+00  0.00000000E+00  0.00000000E+00
  0.00000000E+00  0.00000000E+00  0.00000000E+00
  0.00000000E+00  0.00000000E+00  0.00000000E+00
  0.00000000E+00  0.00000000E+00  0.00000000E+00
  0.00000000E+00  0.00000000E+00  0.00000000E+00
  0.00000000E+00  0.00000000E+00  0.00000000E+00
  0.00000000E+00  0.00000000E+00  0.00000000E+00
  0.00000000E+00  0.00000000E+00  0.00000000E+00
  0.00000000E+00  0.00000000E+00  0.00000000E+00
  0.00000000E+00  0.00000000E+00  0.00000000E+00
  0.00000000E+00  0.00000000E+00  0.00000000E+00
  0.00000000E+00  0.00000000E+00  0.00000000E+00
