Cu Ag                                   
   1.00000000000000     
    18.0000000000000000    0.0000000000000000    0.0000000000000000
     0.0000000000000000   18.0000000000000000    0.0000000000000000
     0.0000000000000000    0.0000000000000000   18.0000000000000000
   Cu   Ag
    32     6
Direct
  0.7157731239319863  0.5676012854174959  0.5000074517877068
  0.5676022630673229  0.7157720075096475  0.5000072206768437
  0.2842034621979123  0.5679963452276947  0.4995170976700686
  0.4316373368842523  0.7157855923347021  0.5001352850370966
  0.2841395056063018  0.4320162968908910  0.4987344720587593
  0.4320153557685212  0.2841391975796805  0.4987364780485635
  0.7157857974409324  0.4316367291934191  0.5001374158094587
  0.5679958942346784  0.2842024981879117  0.4995220096565703
  0.6533639972189884  0.4998665991704747  0.6093623652366613
  0.3462631414379505  0.4995579244682398  0.6088037345097393
  0.4998549718730053  0.6533641413421291  0.6093595494486369
  0.4995549039646501  0.3462623978787061  0.6088080354288393
  0.6414630988969985  0.6414639888514665  0.6054477812994072
  0.3584983100422618  0.6411139632809093  0.6056205466801355
  0.3579987163485108  0.3580078035827892  0.6042604422658608
  0.6411135494828520  0.3584990435922834  0.6056231905313755
  0.6536280721684347  0.5000014547568520  0.3908153550439551
  0.3466146803810376  0.5002586247829108  0.3902582836592314
  0.5000035170900350  0.6536269293002529  0.3908145754581218
  0.5002606104126404  0.3466132854728759  0.3902601082904112
  0.6414474231264092  0.6414461055969278  0.3947695969029572
  0.3586307178565128  0.6415869167517517  0.3944440543754582
  0.3587446906140824  0.3587430311138148  0.3937719553365204
  0.6415880948292464  0.3586294539487846  0.3944474094030349
  0.5735216499958818  0.5735224831817765  0.7022175571741579
  0.4261540978774078  0.5729872229194563  0.7024163596647814
  0.4255265784016598  0.4255289646056957  0.7017382456588308
  0.5729862840095760  0.4261549067284899  0.7024167623778818
  0.5737584470091843  0.5737564623701634  0.2976203030734303
  0.4267168644784405  0.5738896953658207  0.2974965188935079
  0.4268058867492076  0.4268024608013440  0.2972475763972582
  0.5738920646562247  0.4267140767502602  0.2974981491275999
  0.4997332411504236  0.4997332176439119  0.6084505114053868
  0.4237947626712626  0.4237937086680191  0.4995986085971104
  0.4237792982893819  0.5761734701268788  0.4999815432007491
  0.5001555081450196  0.5001543111124777  0.3915043992537238
  0.5761499991343673  0.5761493216031622  0.5001692008474159
  0.5761745646327113  0.4237785393347427  0.4999843548676765
 
  0.00000000E+00  0.00000000E+00  0.00000000E+00
  0.00000000E+00  0.00000000E+00  0.00000000E+00
  0.00000000E+00  0.00000000E+00  0.00000000E+00
  0.00000000E+00  0.00000000E+00  0.00000000E+00
  0.00000000E+00  0.00000000E+00  0.00000000E+00
  0.00000000E+00  0.00000000E+00  0.00000000E+00
  0.00000000E+00  0.00000000E+00  0.00000000E+00
  0.00000000E+00  0.00000000E+00  0.00000000E+00
  0.00000000E+00  0.00000000E+00  0.00000000E+00
  0.00000000E+00  0.00000000E+00  0.00000000E+00
  0.00000000E+00  0.00000000E+00  0.00000000E+00
  0.00000000E+00  0.00000000E+00  0.00000000E+00
  0.00000000E+00  0.00000000E+00  0.00000000E+00
  0.00000000E+00  0.00000000E+00  0.00000000E+00
  0.00000000E+00  0.00000000E+00  0.00000000E+00
  0.00000000E+00  0.00000000E+00  0.00000000E+00
  0.00000000E+00  0.00000000E+00  0.00000000E+00
  0.00000000E+00  0.00000000E+00  0.00000000E+00
  0.00000000E+00  0.00000000E+00  0.00000000E+00
  0.00000000E+00  0.00000000E+00  0.00000000E+00
  0.00000000E+00  0.00000000E+00  0.00000000E+00
  0.00000000E+00  0.00000000E+00  0.00000000E+00
  0.00000000E+00  0.00000000E+00  0.00000000E+00
  0.00000000E+00  0.00000000E+00  0.00000000E+00
  0.00000000E+00  0.00000000E+00  0.00000000E+00
  0.00000000E+00  0.00000000E+00  0.00000000E+00
  0.00000000E+00  0.00000000E+00  0.00000000E+00
  0.00000000E+00  0.00000000E+00  0.00000000E+00
  0.00000000E+00  0.00000000E+00  0.00000000E+00
  0.00000000E+00  0.00000000E+00  0.00000000E+00
  0.00000000E+00  0.00000000E+00  0.00000000E+00
  0.00000000E+00  0.00000000E+00  0.00000000E+00
  0.00000000E+00  0.00000000E+00  0.00000000E+00
  0.00000000E+00  0.00000000E+00  0.00000000E+00
  0.00000000E+00  0.00000000E+00  0.00000000E+00
  0.00000000E+00  0.00000000E+00  0.00000000E+00
  0.00000000E+00  0.00000000E+00  0.00000000E+00
  0.00000000E+00  0.00000000E+00  0.00000000E+00
