SYSTEM = Pt cube particle
IBRION=2
POTIM=0.1
ISYM=0
ISMEAR=0
ISPIN=1
NSW=250
EDIFF=1.0E-06
EDIFFG=-0.01
ENMAX=274
PREC=Normal
LREAL=Auto
ISIF=0
LWAVE=.FALSE.
LCHARG=.FALSE.
NCORE=12
ENCUT = 274
ALGO = Fast
