Cu Ag
 1.0000000000000000
    18.0000000000000000    0.0000000000000000    0.0000000000000000
     0.0000000000000000   18.0000000000000000    0.0000000000000000
     0.0000000000000000    0.0000000000000000   18.0000000000000000
32 6
Cartesian
 13.0063374663110185 10.3157982205340737  9.0036586594462342
 10.3158166713273740 13.0063324905932465  9.0036547166463077
  4.9982877954223639 10.3191050167712604  9.0015777552873715
  7.6768202123387983 13.0004901914717781  9.0058642943804390
  4.9953791730438883  7.6805512994648826  8.9940883802293943
  7.6805380052184509  4.9953861289164356  8.9940918748439689
 13.0004826579014878  7.6768079801542761  9.0058686504254570
 10.3190874120851319  4.9982857534941170  9.0015835612969504
 12.0414375085940613  8.9991310773364130 11.1272718367194550
  5.9494761298160839  8.9919889620781124 11.1198750152554879
  8.9991414820298186 12.0414407906611522 11.1272725268621162
  8.9919760673710201  5.9494823741806035 11.1198741042034968
 11.6747162310261192 11.6747068641093108 10.9395598078348790
  6.3322349426811417 11.6618107601330898 10.9560942360694789
  6.3172644350871252  6.3172766408619330 10.9414246114537157
 11.6617970262103352  6.3322299374157858 10.9560944743752735
 12.0005248092263628  8.9986067588377292  6.8655653988220102
  5.9984402586644663  9.0042769468477992  6.8591670079728129
  8.9986195286111386 12.0005256383339081  6.8655591840151313
  9.0042686793623705  5.9984420528812601  6.8591750924135537
 11.6680100947904979 11.6679983722913541  7.0935723234620696
  6.3266105888990563 11.6758510913726568  7.0894648321954632
  6.3311679010614617  6.3311756731911606  7.0857344954585733
 11.6758407097950077  6.3266023361082961  7.0894748488231638
 10.3750153335512607 10.3750107913721177 12.7487606716372976
  7.6451553018746869 10.3484686565410300 12.7507553475703297
  7.6182884166141642  7.6182945756707028 12.7494175497798157
 10.3484619643688962  7.6451527384594451 12.7507527779477066
 10.3502154332346556 10.3502041276748411  5.2084496770440412
  7.6503306411588738 10.3543731812986817  5.2059303558116818
  7.6529621160870809  7.6529592963436341  5.2069838966984285
 10.3543743264014392  7.6503203036823724  5.2059391326077318
  8.9979901587284470  8.9979904663176811 10.8480450326282210
  7.6644673058006889  7.6644714187287475  8.9949722523727864
  7.6654155287306036 10.3321526368713634  8.9951225411686391
  8.9998034077035118  8.9998002265703878  7.0942776953856281
 10.3330440336179841 10.3330369795034862  8.9959817703792542
 10.3321489226266898  7.6654094769315906  8.9951247032647608
